(set-logic QF_S)
(declare-fun var0 () String)
(assert (str.in.re var0 (re.++ (re.+ (re.* (str.to.re "000"))) (re.++ (re.* (re.union (str.to.re "1") (str.to.re "2"))) (re.++ (re.+ (re.+ (str.to.re "33"))) (re.++ (re.* (re.+ (str.to.re "444"))) (re.++ (re.union (re.+ (str.to.re "5")) (re.+ (str.to.re "666"))) (re.++ (re.* (re.* (str.to.re "77"))) (re.++ (re.* (re.union (str.to.re "88") (str.to.re "99"))) (re.++ (re.union (re.* (str.to.re "aa")) (re.* (str.to.re "bbb"))) (re.++ (re.union (re.union (str.to.re "c") (str.to.re "d")) (re.union (str.to.re "e") (str.to.re "ff"))) (re.++ (re.* (re.union (str.to.re "ggg") (str.to.re "hh"))) (re.++ (re.+ (re.+ (str.to.re "ii"))) (re.++ (re.* (re.+ (str.to.re "j"))) (re.++ (re.+ (re.union (str.to.re "kkk") (str.to.re "l"))) (re.++ (re.union (re.union (str.to.re "mmm") (str.to.re "n")) (re.union (str.to.re "oo") (str.to.re "p"))) (re.++ (re.+ (re.* (str.to.re "q"))) (re.++ (re.* (re.union (str.to.re "rrr") (str.to.re "ss"))) (re.++ (re.* (re.* (str.to.re "ttt"))) (re.++ (re.+ (re.+ (str.to.re "uuu"))) (re.++ (re.+ (re.+ (str.to.re "vvv"))) (re.++ (re.+ (re.* (str.to.re "www"))) (re.++ (re.* (re.* (str.to.re "x"))) (re.++ (re.union (re.union (str.to.re "y") (str.to.re "z")) (re.union (str.to.re "A") (str.to.re "B"))) (re.++ (re.+ (re.+ (str.to.re "CCC"))) (re.++ (re.+ (re.union (str.to.re "D") (str.to.re "EE"))) (re.++ (re.* (re.+ (str.to.re "FF"))) (re.++ (re.union (re.* (str.to.re "G")) (re.* (str.to.re "H"))) (re.++ (re.* (re.* (str.to.re "III"))) (re.++ (re.union (re.+ (str.to.re "JJJ")) (re.+ (str.to.re "KK"))) (re.++ (re.+ (re.+ (str.to.re "LL"))) (re.++ (re.* (re.+ (str.to.re "MM"))) (re.++ (re.* (re.+ (str.to.re "NNN"))) (re.++ (re.* (re.+ (str.to.re "OOO"))) (re.++ (re.+ (re.union (str.to.re "P") (str.to.re "QQ"))) (re.++ (re.+ (re.* (str.to.re "RRR"))) (re.++ (re.union (re.* (str.to.re "S")) (re.* (str.to.re "TT"))) (re.++ (re.* (re.* (str.to.re "UUU"))) (re.++ (re.union (re.+ (str.to.re "V")) (re.+ (str.to.re "W"))) (re.++ (re.+ (re.* (str.to.re "XX"))) (re.++ (re.union (re.+ (str.to.re "YY")) (re.+ (str.to.re "ZZZ"))) (re.++ (re.union (re.+ (str.to.re "!")) (re.+ (str.to.re """"))) (re.++ (re.+ (re.union (str.to.re "###") (str.to.re "$"))) (re.++ (re.* (re.* (str.to.re "%%"))) (re.++ (re.* (re.* (str.to.re "&&&"))) (re.++ (re.* (re.union (str.to.re "''") (str.to.re "((("))) (re.++ (re.* (re.+ (str.to.re ")))"))) (re.++ (re.* (re.+ (str.to.re "*"))) (re.++ (re.+ (re.union (str.to.re "+++") (str.to.re ",,,"))) (re.++ (re.+ (re.* (str.to.re "---"))) (re.++ (re.union (re.+ (str.to.re ".")) (re.+ (str.to.re "//"))) (re.++ (re.union (re.+ (str.to.re ":")) (re.+ (str.to.re ";;;"))) (re.++ (re.* (re.union (str.to.re "<<") (str.to.re "="))) (re.++ (re.* (re.+ (str.to.re ">>>"))) (re.++ (re.* (re.union (str.to.re "??") (str.to.re "@"))) (re.++ (re.+ (re.* (str.to.re "[["))) (re.++ (re.union (re.+ (str.to.re "\\\\")) (re.+ (str.to.re "]"))) (re.++ (re.+ (re.union (str.to.re "^^") (str.to.re "__"))) (re.++ (re.union (re.union (str.to.re "```") (str.to.re "{{")) (re.union (str.to.re "|") (str.to.re "}"))) (re.++ (re.* (re.* (str.to.re "~~~"))) (re.++ (re.union (re.+ (str.to.re "0")) (re.+ (str.to.re "111"))) (re.++ (re.union (re.+ (str.to.re "2")) (re.+ (str.to.re "333"))) (re.++ (re.* (re.union (str.to.re "444") (str.to.re "5"))) (re.++ (re.+ (re.union (str.to.re "666") (str.to.re "7"))) (re.++ (re.* (re.+ (str.to.re "8"))) (re.++ (re.* (re.+ (str.to.re "9"))) (re.++ (re.* (re.* (str.to.re "aaa"))) (re.++ (re.union (re.+ (str.to.re "bb")) (re.+ (str.to.re "ccc"))) (re.++ (re.union (re.union (str.to.re "d") (str.to.re "eee")) (re.union (str.to.re "f") (str.to.re "g"))) (re.++ (re.* (re.+ (str.to.re "hhh"))) (re.++ (re.* (re.* (str.to.re "iii"))) (re.++ (re.union (re.* (str.to.re "j")) (re.* (str.to.re "kkk"))) (re.++ (re.union (re.+ (str.to.re "ll")) (re.+ (str.to.re "mmm"))) (re.++ (re.* (re.* (str.to.re "n"))) (re.++ (re.* (re.+ (str.to.re "o"))) (re.++ (re.+ (re.* (str.to.re "pp"))) (re.++ (re.+ (re.+ (str.to.re "q"))) (re.++ (re.* (re.union (str.to.re "rrr") (str.to.re "sss"))) (re.++ (re.+ (re.union (str.to.re "tt") (str.to.re "uu"))) (re.++ (re.union (re.+ (str.to.re "vv")) (re.+ (str.to.re "w"))) (re.++ (re.union (re.* (str.to.re "x")) (re.* (str.to.re "yy"))) (re.++ (re.+ (re.* (str.to.re "zzz"))) (re.++ (re.+ (re.union (str.to.re "AAA") (str.to.re "B"))) (re.++ (re.+ (re.+ (str.to.re "C"))) (re.++ (re.+ (re.union (str.to.re "DDD") (str.to.re "EE"))) (re.++ (re.* (re.union (str.to.re "FFF") (str.to.re "GGG"))) (re.++ (re.+ (re.union (str.to.re "HHH") (str.to.re "III"))) (re.++ (re.+ (re.+ (str.to.re "J"))) (re.++ (re.union (re.union (str.to.re "K") (str.to.re "LLL")) (re.union (str.to.re "MM") (str.to.re "NNN"))) (re.++ (re.+ (re.+ (str.to.re "OOO"))) (re.++ (re.* (re.union (str.to.re "PP") (str.to.re "QQ"))) (re.++ (re.+ (re.* (str.to.re "RR"))) (re.++ (re.union (re.union (str.to.re "SSS") (str.to.re "TT")) (re.union (str.to.re "U") (str.to.re "V"))) (re.++ (re.union (re.* (str.to.re "W")) (re.* (str.to.re "XXX"))) (re.++ (re.union (re.+ (str.to.re "Y")) (re.+ (str.to.re "Z"))) (re.++ (re.+ (re.* (str.to.re "!!"))) (re.++ (re.+ (re.union (str.to.re """""""") (str.to.re "#"))) (re.++ (re.union (re.+ (str.to.re "$")) (re.+ (str.to.re "%%"))) (re.++ (re.+ (re.* (str.to.re "&"))) (re.++ (re.+ (re.* (str.to.re "'''"))) (re.++ (re.union (re.union (str.to.re "(") (str.to.re ")")) (re.union (str.to.re "***") (str.to.re "++"))) (re.++ (re.+ (re.union (str.to.re ",,,") (str.to.re "--"))) (re.++ (re.* (re.* (str.to.re ".."))) (re.++ (re.+ (re.+ (str.to.re "///"))) (re.++ (re.+ (re.* (str.to.re ":::"))) (re.++ (re.union (re.* (str.to.re ";")) (re.* (str.to.re "<<"))) (re.++ (re.union (re.* (str.to.re "=")) (re.* (str.to.re ">>"))) (re.++ (re.union (re.* (str.to.re "?")) (re.* (str.to.re "@@@"))) (re.++ (re.union (re.+ (str.to.re "[[")) (re.+ (str.to.re "\\"))) (re.++ (re.+ (re.+ (str.to.re "]]]"))) (re.++ (re.+ (re.union (str.to.re "^^") (str.to.re "___"))) (re.++ (re.union (re.* (str.to.re "`")) (re.* (str.to.re "{{{"))) (re.++ (re.* (re.union (str.to.re "|") (str.to.re "}}"))) (re.++ (re.+ (re.* (str.to.re "~~"))) (re.union (re.union (str.to.re "0") (str.to.re "111")) (re.union (str.to.re "2") (str.to.re "333")))))))))))))))))))))))))))))))))))))))))))))))))))))))))))))))))))))))))))))))))))))))))))))))))))))))))))))))))))))
(check-sat)